Maximize
  - 3.6749900061942 edge_0_1_0_0 - 1.4363467643008 edge_0_2_0_0
   - 1.1216003956248 edge_0_3_0_0 - 3.03232654586 edge_0_4_0_0
   - 2.1142717058262 edge_0_7_0_0 - 4.1034026612614 edge_0_13_0_0
   - 3.770640174771 edge_0_16_0_0 - 3.9437597168186 edge_0_18_0_0
   - 0.1949406213848033 edge_1_2_0_0 - 0.0124681120445034 edge_2_1_0_0
   + 1.119653663829121 edge_2_3_0_0 - 0.1767040375430616 edge_2_4_0_0
   + 0.3795428119668021 edge_2_13_0_0 - 0.0410001946041196 edge_2_16_0_0
   + 2.079875885466291 edge_2_19_0_0 + 0.3537564544314137 edge_3_1_0_0
   + 1.597360148094734 edge_3_2_0_0 + 1.899981064238996 edge_3_4_0_0
   + 0.998991165600577 edge_3_5_0_0 + 0.3161702281393862 edge_3_6_0_0
   + 1.416001428308962 edge_3_7_0_0 + 1.624505615915313 edge_3_10_0_0
   + 2.166606686187504 edge_3_12_0_0 + 2.096366326578332 edge_3_13_0_0
   + 0.5916935509906944 edge_3_14_0_0 - 0.5679839592044506 edge_3_15_0_0
   + 1.873415418853396 edge_3_16_0_0 - 0.0389946401778095 edge_3_18_0_0
   + 4.052456095663461 edge_3_19_0_0 + 0.0919392775741431 edge_4_2_0_0
   - 0.4408199433448126 edge_4_3_0_0 + 0.2851308396452391 edge_4_5_0_0
   + 0.075693577752175 edge_4_6_0_0 + 0.8967003807015793 edge_4_7_0_0
   + 0.6576154395607502 edge_4_10_0_0 + 0.6272879264311575 edge_4_12_0_0
   + 0.9737873868619172 edge_4_13_0_0 + 0.103104640851613 edge_4_16_0_0
   + 0.4383787405360551 edge_4_18_0_0 + 1.063102104036047 edge_4_19_0_0
   + 0.1444183682627483 edge_5_4_0_0 + 0.211589091491724 edge_5_6_0_0
   + 0.6892463312832644 edge_5_7_0_0 + 0.4701337138053817 edge_5_10_0_0
   - 0.0113527321361134 edge_5_12_0_0 + 0.2114118072068225 edge_5_13_0_0
   - 0.2162362848389548 edge_5_14_0_0 - 0.0121230652882221 edge_5_15_0_0
   + 0.0906315456208869 edge_5_18_0_0 + 0.2503653257738145 edge_6_5_0_0
   + 0.4657966530325984 edge_6_7_0_0 - 0.2607470412902552 edge_7_3_0_0
   + 0.1254079833676423 edge_7_4_0_0 + 1.618881644646299 edge_7_5_0_0
   + 0.9330332403196216 edge_7_6_0_0 + 1.290636941198054 edge_7_10_0_0
   + 0.8015697416377269 edge_7_12_0_0 + 0.8845326637636781 edge_7_13_0_0
   + 0.2128666809442471 edge_7_16_0_0 + 0.4832287845038907 edge_7_18_0_0
   + 0.3664614447003088 edge_7_19_0_0 - 0.0621190042533699 edge_10_2_0_0
   + 0.3841125389137673 edge_10_4_0_0 + 1.352499445440642 edge_10_5_0_0
   + 1.405692100111249 edge_10_6_0_0 + 2.874019698758328 edge_10_7_0_0
   + 1.020041527728719 edge_10_12_0_0 + 1.057477137822038 edge_10_13_0_0
   + 0.3329088609195297 edge_10_14_0_0 - 0.070115056822088 edge_10_15_0_0
   + 0.1330177773080723 edge_10_16_0_0 + 0.2586162035889567 edge_10_18_0_0
   + 2.237926414970834 edge_10_19_0_0 - 0.5653874432566389 edge_12_5_0_0
   - 0.3321917326829316 edge_12_6_0_0 - 0.2099301070798966 edge_12_10_0_0
   - 0.1799768120475738 edge_12_13_0_0 - 1.234705437771383 edge_13_1_0_0
   - 0.4105994472023051 edge_13_2_0_0 - 0.4077045533595584 edge_13_4_0_0
   + 0.4688978545270023 edge_13_5_0_0 - 0.5157616187434464 edge_13_6_0_0
   - 0.3483263142136508 edge_13_7_0_0 - 0.0766406231269185 edge_13_10_0_0
   + 0.4701661160732622 edge_13_12_0_0 + 3.085560385851364 edge_13_14_0_0
   + 0.1806049025012276 edge_13_15_0_0 + 2.298355459951461 edge_13_16_0_0
   + 1.913871556652551 edge_13_18_0_0 + 2.610071736361767 edge_13_19_0_0
   + 1.150613132230734 edge_14_15_0_0 + 1.210324782029737 edge_14_16_0_0
   + 1.540702442456848 edge_14_18_0_0 - 0.7034519880599527 edge_15_14_0_0
   - 0.2970941031754708 edge_15_16_0_0 + 0.0134665578936085 edge_15_18_0_0
   - 0.190862094071423 edge_16_1_0_0 - 0.1545611060277831 edge_16_2_0_0
   - 0.425967704838796 edge_16_3_0_0 - 0.0358520688721112 edge_16_4_0_0
   - 0.1013537059947821 edge_16_5_0_0 - 0.1469681456885699 edge_16_6_0_0
   + 0.0321499313813176 edge_16_7_0_0 + 0.1870939467577001 edge_16_10_0_0
   + 0.1303781231201481 edge_16_12_0_0 + 0.0471959378268911 edge_16_13_0_0
   + 0.7796905876703428 edge_16_14_0_0 + 2.885518210158126 edge_16_15_0_0
   + 3.284593764652863 edge_16_18_0_0 + 1.724537342627899 edge_16_19_0_0
   - 0.2193320652433966 edge_18_5_0_0 - 0.1976557954538376 edge_18_7_0_0
   - 0.4171939543346712 edge_18_10_0_0 + 0.1977929023992046 edge_18_12_0_0
   + 0.4557157418544593 edge_18_13_0_0 - 0.0889443491069957 edge_18_14_0_0
   + 1.770063190475725 edge_18_15_0_0 + 1.013841619890596 edge_18_16_0_0
   + 1.102255649160774 edge_18_19_0_0 - 0.9159933968323626 edge_19_16_0_0
   - 1.391437622814738 edge_19_18_0_0
Subject To
 one_parent_1: edge_0_1_0_0 + edge_2_1_0_0 + edge_3_1_0_0 + edge_13_1_0_0
   + edge_16_1_0_0 = 1
 consume_one_flow_unit_1: flow_0_1_0_0 - flow_1_2_0_0 + flow_2_1_0_0
   + flow_3_1_0_0 + flow_13_1_0_0 + flow_16_1_0_0 = 1
 one_parent_2: edge_0_2_0_0 + edge_1_2_0_0 + edge_3_2_0_0 + edge_4_2_0_0
   + edge_10_2_0_0 + edge_13_2_0_0 + edge_16_2_0_0 = 1
 consume_one_flow_unit_2: flow_0_2_0_0 + flow_1_2_0_0 - flow_2_1_0_0
   - flow_2_3_0_0 - flow_2_4_0_0 - flow_2_13_0_0 - flow_2_16_0_0
   - flow_2_19_0_0 + flow_3_2_0_0 + flow_4_2_0_0 + flow_10_2_0_0
   + flow_13_2_0_0 + flow_16_2_0_0 = 1
 one_parent_3: edge_0_3_0_0 + edge_2_3_0_0 + edge_4_3_0_0 + edge_7_3_0_0
   + edge_16_3_0_0 = 1
 consume_one_flow_unit_3: flow_0_3_0_0 + flow_2_3_0_0 - flow_3_1_0_0
   - flow_3_2_0_0 - flow_3_4_0_0 - flow_3_5_0_0 - flow_3_6_0_0
   - flow_3_7_0_0 - flow_3_10_0_0 - flow_3_12_0_0 - flow_3_13_0_0
   - flow_3_14_0_0 - flow_3_15_0_0 - flow_3_16_0_0 - flow_3_18_0_0
   - flow_3_19_0_0 + flow_4_3_0_0 + flow_7_3_0_0 + flow_16_3_0_0 = 1
 one_parent_4: edge_0_4_0_0 + edge_2_4_0_0 + edge_3_4_0_0 + edge_5_4_0_0
   + edge_7_4_0_0 + edge_10_4_0_0 + edge_13_4_0_0 + edge_16_4_0_0 = 1
 consume_one_flow_unit_4: flow_0_4_0_0 + flow_2_4_0_0 + flow_3_4_0_0
   - flow_4_2_0_0 - flow_4_3_0_0 - flow_4_5_0_0 - flow_4_6_0_0
   - flow_4_7_0_0 - flow_4_10_0_0 - flow_4_12_0_0 - flow_4_13_0_0
   - flow_4_16_0_0 - flow_4_18_0_0 - flow_4_19_0_0 + flow_5_4_0_0
   + flow_7_4_0_0 + flow_10_4_0_0 + flow_13_4_0_0 + flow_16_4_0_0 = 1
 one_parent_5: edge_3_5_0_0 + edge_4_5_0_0 + edge_6_5_0_0 + edge_7_5_0_0
   + edge_10_5_0_0 + edge_12_5_0_0 + edge_13_5_0_0 + edge_16_5_0_0
   + edge_18_5_0_0 = 1
 consume_one_flow_unit_5: flow_3_5_0_0 + flow_4_5_0_0 - flow_5_4_0_0
   - flow_5_6_0_0 - flow_5_7_0_0 - flow_5_10_0_0 - flow_5_12_0_0
   - flow_5_13_0_0 - flow_5_14_0_0 - flow_5_15_0_0 - flow_5_18_0_0
   + flow_6_5_0_0 + flow_7_5_0_0 + flow_10_5_0_0 + flow_12_5_0_0
   + flow_13_5_0_0 + flow_16_5_0_0 + flow_18_5_0_0 = 1
 one_parent_6: edge_3_6_0_0 + edge_4_6_0_0 + edge_5_6_0_0 + edge_7_6_0_0
   + edge_10_6_0_0 + edge_12_6_0_0 + edge_13_6_0_0 + edge_16_6_0_0 = 1
 consume_one_flow_unit_6: flow_3_6_0_0 + flow_4_6_0_0 + flow_5_6_0_0
   - flow_6_5_0_0 - flow_6_7_0_0 + flow_7_6_0_0 + flow_10_6_0_0
   + flow_12_6_0_0 + flow_13_6_0_0 + flow_16_6_0_0 = 1
 one_parent_7: edge_0_7_0_0 + edge_3_7_0_0 + edge_4_7_0_0 + edge_5_7_0_0
   + edge_6_7_0_0 + edge_10_7_0_0 + edge_13_7_0_0 + edge_16_7_0_0
   + edge_18_7_0_0 = 1
 consume_one_flow_unit_7: flow_0_7_0_0 + flow_3_7_0_0 + flow_4_7_0_0
   + flow_5_7_0_0 + flow_6_7_0_0 - flow_7_3_0_0 - flow_7_4_0_0
   - flow_7_5_0_0 - flow_7_6_0_0 - flow_7_10_0_0 - flow_7_12_0_0
   - flow_7_13_0_0 - flow_7_16_0_0 - flow_7_18_0_0 - flow_7_19_0_0
   + flow_10_7_0_0 + flow_13_7_0_0 + flow_16_7_0_0 + flow_18_7_0_0 = 1
 one_parent_8: = 1
 consume_one_flow_unit_8: = 1
 one_parent_9: = 1
 consume_one_flow_unit_9: = 1
 one_parent_10: edge_3_10_0_0 + edge_4_10_0_0 + edge_5_10_0_0
   + edge_7_10_0_0 + edge_12_10_0_0 + edge_13_10_0_0 + edge_16_10_0_0
   + edge_18_10_0_0 = 1
 consume_one_flow_unit_10: flow_3_10_0_0 + flow_4_10_0_0 + flow_5_10_0_0
   + flow_7_10_0_0 - flow_10_2_0_0 - flow_10_4_0_0 - flow_10_5_0_0
   - flow_10_6_0_0 - flow_10_7_0_0 - flow_10_12_0_0 - flow_10_13_0_0
   - flow_10_14_0_0 - flow_10_15_0_0 - flow_10_16_0_0 - flow_10_18_0_0
   - flow_10_19_0_0 + flow_12_10_0_0 + flow_13_10_0_0 + flow_16_10_0_0
   + flow_18_10_0_0 = 1
 one_parent_11: = 1
 consume_one_flow_unit_11: = 1
 one_parent_12: edge_3_12_0_0 + edge_4_12_0_0 + edge_5_12_0_0
   + edge_7_12_0_0 + edge_10_12_0_0 + edge_13_12_0_0 + edge_16_12_0_0
   + edge_18_12_0_0 = 1
 consume_one_flow_unit_12: flow_3_12_0_0 + flow_4_12_0_0 + flow_5_12_0_0
   + flow_7_12_0_0 + flow_10_12_0_0 - flow_12_5_0_0 - flow_12_6_0_0
   - flow_12_10_0_0 - flow_12_13_0_0 + flow_13_12_0_0 + flow_16_12_0_0
   + flow_18_12_0_0 = 1
 one_parent_13: edge_0_13_0_0 + edge_2_13_0_0 + edge_3_13_0_0
   + edge_4_13_0_0 + edge_5_13_0_0 + edge_7_13_0_0 + edge_10_13_0_0
   + edge_12_13_0_0 + edge_16_13_0_0 + edge_18_13_0_0 = 1
 consume_one_flow_unit_13: flow_0_13_0_0 + flow_2_13_0_0 + flow_3_13_0_0
   + flow_4_13_0_0 + flow_5_13_0_0 + flow_7_13_0_0 + flow_10_13_0_0
   + flow_12_13_0_0 - flow_13_1_0_0 - flow_13_2_0_0 - flow_13_4_0_0
   - flow_13_5_0_0 - flow_13_6_0_0 - flow_13_7_0_0 - flow_13_10_0_0
   - flow_13_12_0_0 - flow_13_14_0_0 - flow_13_15_0_0 - flow_13_16_0_0
   - flow_13_18_0_0 - flow_13_19_0_0 + flow_16_13_0_0 + flow_18_13_0_0 = 1
 one_parent_14: edge_3_14_0_0 + edge_5_14_0_0 + edge_10_14_0_0
   + edge_13_14_0_0 + edge_15_14_0_0 + edge_16_14_0_0 + edge_18_14_0_0 = 1
 consume_one_flow_unit_14: flow_3_14_0_0 + flow_5_14_0_0 + flow_10_14_0_0
   + flow_13_14_0_0 - flow_14_15_0_0 - flow_14_16_0_0 - flow_14_18_0_0
   + flow_15_14_0_0 + flow_16_14_0_0 + flow_18_14_0_0 = 1
 one_parent_15: edge_3_15_0_0 + edge_5_15_0_0 + edge_10_15_0_0
   + edge_13_15_0_0 + edge_14_15_0_0 + edge_16_15_0_0 + edge_18_15_0_0 = 1
 consume_one_flow_unit_15: flow_3_15_0_0 + flow_5_15_0_0 + flow_10_15_0_0
   + flow_13_15_0_0 + flow_14_15_0_0 - flow_15_14_0_0 - flow_15_16_0_0
   - flow_15_18_0_0 + flow_16_15_0_0 + flow_18_15_0_0 = 1
 one_parent_16: edge_0_16_0_0 + edge_2_16_0_0 + edge_3_16_0_0
   + edge_4_16_0_0 + edge_7_16_0_0 + edge_10_16_0_0 + edge_13_16_0_0
   + edge_14_16_0_0 + edge_15_16_0_0 + edge_18_16_0_0 + edge_19_16_0_0 = 1
 consume_one_flow_unit_16: flow_0_16_0_0 + flow_2_16_0_0 + flow_3_16_0_0
   + flow_4_16_0_0 + flow_7_16_0_0 + flow_10_16_0_0 + flow_13_16_0_0
   + flow_14_16_0_0 + flow_15_16_0_0 - flow_16_1_0_0 - flow_16_2_0_0
   - flow_16_3_0_0 - flow_16_4_0_0 - flow_16_5_0_0 - flow_16_6_0_0
   - flow_16_7_0_0 - flow_16_10_0_0 - flow_16_12_0_0 - flow_16_13_0_0
   - flow_16_14_0_0 - flow_16_15_0_0 - flow_16_18_0_0 - flow_16_19_0_0
   + flow_18_16_0_0 + flow_19_16_0_0 = 1
 one_parent_17: = 1
 consume_one_flow_unit_17: = 1
 one_parent_18: edge_0_18_0_0 + edge_3_18_0_0 + edge_4_18_0_0
   + edge_5_18_0_0 + edge_7_18_0_0 + edge_10_18_0_0 + edge_13_18_0_0
   + edge_14_18_0_0 + edge_15_18_0_0 + edge_16_18_0_0 + edge_19_18_0_0 = 1
 consume_one_flow_unit_18: flow_0_18_0_0 + flow_3_18_0_0 + flow_4_18_0_0
   + flow_5_18_0_0 + flow_7_18_0_0 + flow_10_18_0_0 + flow_13_18_0_0
   + flow_14_18_0_0 + flow_15_18_0_0 + flow_16_18_0_0 - flow_18_5_0_0
   - flow_18_7_0_0 - flow_18_10_0_0 - flow_18_12_0_0 - flow_18_13_0_0
   - flow_18_14_0_0 - flow_18_15_0_0 - flow_18_16_0_0 - flow_18_19_0_0
   + flow_19_18_0_0 = 1
 one_parent_19: edge_2_19_0_0 + edge_3_19_0_0 + edge_4_19_0_0
   + edge_7_19_0_0 + edge_10_19_0_0 + edge_13_19_0_0 + edge_16_19_0_0
   + edge_18_19_0_0 = 1
 consume_one_flow_unit_19: flow_2_19_0_0 + flow_3_19_0_0 + flow_4_19_0_0
   + flow_7_19_0_0 + flow_10_19_0_0 + flow_13_19_0_0 + flow_16_19_0_0
   + flow_18_19_0_0 - flow_19_16_0_0 - flow_19_18_0_0 = 1
 root_flow: flow_0_1_0_0 + flow_0_2_0_0 + flow_0_3_0_0 + flow_0_4_0_0
   + flow_0_7_0_0 + flow_0_13_0_0 + flow_0_16_0_0 + flow_0_18_0_0 = 19
 inactive_no_flow_0_1_0_0: flow_0_1_0_0 - 1000 edge_0_1_0_0 <= 0
 inactive_no_flow_0_2_0_0: flow_0_2_0_0 - 1000 edge_0_2_0_0 <= 0
 inactive_no_flow_0_3_0_0: flow_0_3_0_0 - 1000 edge_0_3_0_0 <= 0
 inactive_no_flow_0_4_0_0: flow_0_4_0_0 - 1000 edge_0_4_0_0 <= 0
 inactive_no_flow_0_7_0_0: flow_0_7_0_0 - 1000 edge_0_7_0_0 <= 0
 inactive_no_flow_0_13_0_0: flow_0_13_0_0 - 1000 edge_0_13_0_0 <= 0
 inactive_no_flow_0_16_0_0: flow_0_16_0_0 - 1000 edge_0_16_0_0 <= 0
 inactive_no_flow_0_18_0_0: flow_0_18_0_0 - 1000 edge_0_18_0_0 <= 0
 inactive_no_flow_1_2_0_0: flow_1_2_0_0 - 1000 edge_1_2_0_0 <= 0
 inactive_no_flow_2_1_0_0: flow_2_1_0_0 - 1000 edge_2_1_0_0 <= 0
 inactive_no_flow_2_3_0_0: flow_2_3_0_0 - 1000 edge_2_3_0_0 <= 0
 inactive_no_flow_2_4_0_0: flow_2_4_0_0 - 1000 edge_2_4_0_0 <= 0
 inactive_no_flow_2_13_0_0: flow_2_13_0_0 - 1000 edge_2_13_0_0 <= 0
 inactive_no_flow_2_16_0_0: flow_2_16_0_0 - 1000 edge_2_16_0_0 <= 0
 inactive_no_flow_2_19_0_0: flow_2_19_0_0 - 1000 edge_2_19_0_0 <= 0
 inactive_no_flow_3_1_0_0: flow_3_1_0_0 - 1000 edge_3_1_0_0 <= 0
 inactive_no_flow_3_2_0_0: flow_3_2_0_0 - 1000 edge_3_2_0_0 <= 0
 inactive_no_flow_3_4_0_0: flow_3_4_0_0 - 1000 edge_3_4_0_0 <= 0
 inactive_no_flow_3_5_0_0: flow_3_5_0_0 - 1000 edge_3_5_0_0 <= 0
 inactive_no_flow_3_6_0_0: flow_3_6_0_0 - 1000 edge_3_6_0_0 <= 0
 inactive_no_flow_3_7_0_0: flow_3_7_0_0 - 1000 edge_3_7_0_0 <= 0
 inactive_no_flow_3_10_0_0: flow_3_10_0_0 - 1000 edge_3_10_0_0 <= 0
 inactive_no_flow_3_12_0_0: flow_3_12_0_0 - 1000 edge_3_12_0_0 <= 0
 inactive_no_flow_3_13_0_0: flow_3_13_0_0 - 1000 edge_3_13_0_0 <= 0
 inactive_no_flow_3_14_0_0: flow_3_14_0_0 - 1000 edge_3_14_0_0 <= 0
 inactive_no_flow_3_15_0_0: flow_3_15_0_0 - 1000 edge_3_15_0_0 <= 0
 inactive_no_flow_3_16_0_0: flow_3_16_0_0 - 1000 edge_3_16_0_0 <= 0
 inactive_no_flow_3_18_0_0: flow_3_18_0_0 - 1000 edge_3_18_0_0 <= 0
 inactive_no_flow_3_19_0_0: flow_3_19_0_0 - 1000 edge_3_19_0_0 <= 0
 inactive_no_flow_4_2_0_0: flow_4_2_0_0 - 1000 edge_4_2_0_0 <= 0
 inactive_no_flow_4_3_0_0: flow_4_3_0_0 - 1000 edge_4_3_0_0 <= 0
 inactive_no_flow_4_5_0_0: flow_4_5_0_0 - 1000 edge_4_5_0_0 <= 0
 inactive_no_flow_4_6_0_0: flow_4_6_0_0 - 1000 edge_4_6_0_0 <= 0
 inactive_no_flow_4_7_0_0: flow_4_7_0_0 - 1000 edge_4_7_0_0 <= 0
 inactive_no_flow_4_10_0_0: flow_4_10_0_0 - 1000 edge_4_10_0_0 <= 0
 inactive_no_flow_4_12_0_0: flow_4_12_0_0 - 1000 edge_4_12_0_0 <= 0
 inactive_no_flow_4_13_0_0: flow_4_13_0_0 - 1000 edge_4_13_0_0 <= 0
 inactive_no_flow_4_16_0_0: flow_4_16_0_0 - 1000 edge_4_16_0_0 <= 0
 inactive_no_flow_4_18_0_0: flow_4_18_0_0 - 1000 edge_4_18_0_0 <= 0
 inactive_no_flow_4_19_0_0: flow_4_19_0_0 - 1000 edge_4_19_0_0 <= 0
 inactive_no_flow_5_4_0_0: flow_5_4_0_0 - 1000 edge_5_4_0_0 <= 0
 inactive_no_flow_5_6_0_0: flow_5_6_0_0 - 1000 edge_5_6_0_0 <= 0
 inactive_no_flow_5_7_0_0: flow_5_7_0_0 - 1000 edge_5_7_0_0 <= 0
 inactive_no_flow_5_10_0_0: flow_5_10_0_0 - 1000 edge_5_10_0_0 <= 0
 inactive_no_flow_5_12_0_0: flow_5_12_0_0 - 1000 edge_5_12_0_0 <= 0
 inactive_no_flow_5_13_0_0: flow_5_13_0_0 - 1000 edge_5_13_0_0 <= 0
 inactive_no_flow_5_14_0_0: flow_5_14_0_0 - 1000 edge_5_14_0_0 <= 0
 inactive_no_flow_5_15_0_0: flow_5_15_0_0 - 1000 edge_5_15_0_0 <= 0
 inactive_no_flow_5_18_0_0: flow_5_18_0_0 - 1000 edge_5_18_0_0 <= 0
 inactive_no_flow_6_5_0_0: flow_6_5_0_0 - 1000 edge_6_5_0_0 <= 0
 inactive_no_flow_6_7_0_0: flow_6_7_0_0 - 1000 edge_6_7_0_0 <= 0
 inactive_no_flow_7_3_0_0: flow_7_3_0_0 - 1000 edge_7_3_0_0 <= 0
 inactive_no_flow_7_4_0_0: flow_7_4_0_0 - 1000 edge_7_4_0_0 <= 0
 inactive_no_flow_7_5_0_0: flow_7_5_0_0 - 1000 edge_7_5_0_0 <= 0
 inactive_no_flow_7_6_0_0: flow_7_6_0_0 - 1000 edge_7_6_0_0 <= 0
 inactive_no_flow_7_10_0_0: flow_7_10_0_0 - 1000 edge_7_10_0_0 <= 0
 inactive_no_flow_7_12_0_0: flow_7_12_0_0 - 1000 edge_7_12_0_0 <= 0
 inactive_no_flow_7_13_0_0: flow_7_13_0_0 - 1000 edge_7_13_0_0 <= 0
 inactive_no_flow_7_16_0_0: flow_7_16_0_0 - 1000 edge_7_16_0_0 <= 0
 inactive_no_flow_7_18_0_0: flow_7_18_0_0 - 1000 edge_7_18_0_0 <= 0
 inactive_no_flow_7_19_0_0: flow_7_19_0_0 - 1000 edge_7_19_0_0 <= 0
 inactive_no_flow_10_2_0_0: flow_10_2_0_0 - 1000 edge_10_2_0_0 <= 0
 inactive_no_flow_10_4_0_0: flow_10_4_0_0 - 1000 edge_10_4_0_0 <= 0
 inactive_no_flow_10_5_0_0: flow_10_5_0_0 - 1000 edge_10_5_0_0 <= 0
 inactive_no_flow_10_6_0_0: flow_10_6_0_0 - 1000 edge_10_6_0_0 <= 0
 inactive_no_flow_10_7_0_0: flow_10_7_0_0 - 1000 edge_10_7_0_0 <= 0
 inactive_no_flow_10_12_0_0: flow_10_12_0_0 - 1000 edge_10_12_0_0 <= 0
 inactive_no_flow_10_13_0_0: flow_10_13_0_0 - 1000 edge_10_13_0_0 <= 0
 inactive_no_flow_10_14_0_0: flow_10_14_0_0 - 1000 edge_10_14_0_0 <= 0
 inactive_no_flow_10_15_0_0: flow_10_15_0_0 - 1000 edge_10_15_0_0 <= 0
 inactive_no_flow_10_16_0_0: flow_10_16_0_0 - 1000 edge_10_16_0_0 <= 0
 inactive_no_flow_10_18_0_0: flow_10_18_0_0 - 1000 edge_10_18_0_0 <= 0
 inactive_no_flow_10_19_0_0: flow_10_19_0_0 - 1000 edge_10_19_0_0 <= 0
 inactive_no_flow_12_5_0_0: flow_12_5_0_0 - 1000 edge_12_5_0_0 <= 0
 inactive_no_flow_12_6_0_0: flow_12_6_0_0 - 1000 edge_12_6_0_0 <= 0
 inactive_no_flow_12_10_0_0: flow_12_10_0_0 - 1000 edge_12_10_0_0 <= 0
 inactive_no_flow_12_13_0_0: flow_12_13_0_0 - 1000 edge_12_13_0_0 <= 0
 inactive_no_flow_13_1_0_0: flow_13_1_0_0 - 1000 edge_13_1_0_0 <= 0
 inactive_no_flow_13_2_0_0: flow_13_2_0_0 - 1000 edge_13_2_0_0 <= 0
 inactive_no_flow_13_4_0_0: flow_13_4_0_0 - 1000 edge_13_4_0_0 <= 0
 inactive_no_flow_13_5_0_0: flow_13_5_0_0 - 1000 edge_13_5_0_0 <= 0
 inactive_no_flow_13_6_0_0: flow_13_6_0_0 - 1000 edge_13_6_0_0 <= 0
 inactive_no_flow_13_7_0_0: flow_13_7_0_0 - 1000 edge_13_7_0_0 <= 0
 inactive_no_flow_13_10_0_0: flow_13_10_0_0 - 1000 edge_13_10_0_0 <= 0
 inactive_no_flow_13_12_0_0: flow_13_12_0_0 - 1000 edge_13_12_0_0 <= 0
 inactive_no_flow_13_14_0_0: flow_13_14_0_0 - 1000 edge_13_14_0_0 <= 0
 inactive_no_flow_13_15_0_0: flow_13_15_0_0 - 1000 edge_13_15_0_0 <= 0
 inactive_no_flow_13_16_0_0: flow_13_16_0_0 - 1000 edge_13_16_0_0 <= 0
 inactive_no_flow_13_18_0_0: flow_13_18_0_0 - 1000 edge_13_18_0_0 <= 0
 inactive_no_flow_13_19_0_0: flow_13_19_0_0 - 1000 edge_13_19_0_0 <= 0
 inactive_no_flow_14_15_0_0: flow_14_15_0_0 - 1000 edge_14_15_0_0 <= 0
 inactive_no_flow_14_16_0_0: flow_14_16_0_0 - 1000 edge_14_16_0_0 <= 0
 inactive_no_flow_14_18_0_0: flow_14_18_0_0 - 1000 edge_14_18_0_0 <= 0
 inactive_no_flow_15_14_0_0: flow_15_14_0_0 - 1000 edge_15_14_0_0 <= 0
 inactive_no_flow_15_16_0_0: flow_15_16_0_0 - 1000 edge_15_16_0_0 <= 0
 inactive_no_flow_15_18_0_0: flow_15_18_0_0 - 1000 edge_15_18_0_0 <= 0
 inactive_no_flow_16_1_0_0: flow_16_1_0_0 - 1000 edge_16_1_0_0 <= 0
 inactive_no_flow_16_2_0_0: flow_16_2_0_0 - 1000 edge_16_2_0_0 <= 0
 inactive_no_flow_16_3_0_0: flow_16_3_0_0 - 1000 edge_16_3_0_0 <= 0
 inactive_no_flow_16_4_0_0: flow_16_4_0_0 - 1000 edge_16_4_0_0 <= 0
 inactive_no_flow_16_5_0_0: flow_16_5_0_0 - 1000 edge_16_5_0_0 <= 0
 inactive_no_flow_16_6_0_0: flow_16_6_0_0 - 1000 edge_16_6_0_0 <= 0
 inactive_no_flow_16_7_0_0: flow_16_7_0_0 - 1000 edge_16_7_0_0 <= 0
 inactive_no_flow_16_10_0_0: flow_16_10_0_0 - 1000 edge_16_10_0_0 <= 0
 inactive_no_flow_16_12_0_0: flow_16_12_0_0 - 1000 edge_16_12_0_0 <= 0
 inactive_no_flow_16_13_0_0: flow_16_13_0_0 - 1000 edge_16_13_0_0 <= 0
 inactive_no_flow_16_14_0_0: flow_16_14_0_0 - 1000 edge_16_14_0_0 <= 0
 inactive_no_flow_16_15_0_0: flow_16_15_0_0 - 1000 edge_16_15_0_0 <= 0
 inactive_no_flow_16_18_0_0: flow_16_18_0_0 - 1000 edge_16_18_0_0 <= 0
 inactive_no_flow_16_19_0_0: flow_16_19_0_0 - 1000 edge_16_19_0_0 <= 0
 inactive_no_flow_18_5_0_0: flow_18_5_0_0 - 1000 edge_18_5_0_0 <= 0
 inactive_no_flow_18_7_0_0: flow_18_7_0_0 - 1000 edge_18_7_0_0 <= 0
 inactive_no_flow_18_10_0_0: flow_18_10_0_0 - 1000 edge_18_10_0_0 <= 0
 inactive_no_flow_18_12_0_0: flow_18_12_0_0 - 1000 edge_18_12_0_0 <= 0
 inactive_no_flow_18_13_0_0: flow_18_13_0_0 - 1000 edge_18_13_0_0 <= 0
 inactive_no_flow_18_14_0_0: flow_18_14_0_0 - 1000 edge_18_14_0_0 <= 0
 inactive_no_flow_18_15_0_0: flow_18_15_0_0 - 1000 edge_18_15_0_0 <= 0
 inactive_no_flow_18_16_0_0: flow_18_16_0_0 - 1000 edge_18_16_0_0 <= 0
 inactive_no_flow_18_19_0_0: flow_18_19_0_0 - 1000 edge_18_19_0_0 <= 0
 inactive_no_flow_19_16_0_0: flow_19_16_0_0 - 1000 edge_19_16_0_0 <= 0
 inactive_no_flow_19_18_0_0: flow_19_18_0_0 - 1000 edge_19_18_0_0 <= 0
Bounds
Binaries
 edge_0_1_0_0 edge_0_2_0_0 edge_0_3_0_0 edge_0_4_0_0 edge_0_7_0_0
 edge_0_13_0_0 edge_0_16_0_0 edge_0_18_0_0 edge_1_2_0_0 edge_2_1_0_0
 edge_2_3_0_0 edge_2_4_0_0 edge_2_13_0_0 edge_2_16_0_0 edge_2_19_0_0
 edge_3_1_0_0 edge_3_2_0_0 edge_3_4_0_0 edge_3_5_0_0 edge_3_6_0_0
 edge_3_7_0_0 edge_3_10_0_0 edge_3_12_0_0 edge_3_13_0_0 edge_3_14_0_0
 edge_3_15_0_0 edge_3_16_0_0 edge_3_18_0_0 edge_3_19_0_0 edge_4_2_0_0
 edge_4_3_0_0 edge_4_5_0_0 edge_4_6_0_0 edge_4_7_0_0 edge_4_10_0_0
 edge_4_12_0_0 edge_4_13_0_0 edge_4_16_0_0 edge_4_18_0_0 edge_4_19_0_0
 edge_5_4_0_0 edge_5_6_0_0 edge_5_7_0_0 edge_5_10_0_0 edge_5_12_0_0
 edge_5_13_0_0 edge_5_14_0_0 edge_5_15_0_0 edge_5_18_0_0 edge_6_5_0_0
 edge_6_7_0_0 edge_7_3_0_0 edge_7_4_0_0 edge_7_5_0_0 edge_7_6_0_0
 edge_7_10_0_0 edge_7_12_0_0 edge_7_13_0_0 edge_7_16_0_0 edge_7_18_0_0
 edge_7_19_0_0 edge_10_2_0_0 edge_10_4_0_0 edge_10_5_0_0 edge_10_6_0_0
 edge_10_7_0_0 edge_10_12_0_0 edge_10_13_0_0 edge_10_14_0_0 edge_10_15_0_0
 edge_10_16_0_0 edge_10_18_0_0 edge_10_19_0_0 edge_12_5_0_0 edge_12_6_0_0
 edge_12_10_0_0 edge_12_13_0_0 edge_13_1_0_0 edge_13_2_0_0 edge_13_4_0_0
 edge_13_5_0_0 edge_13_6_0_0 edge_13_7_0_0 edge_13_10_0_0 edge_13_12_0_0
 edge_13_14_0_0 edge_13_15_0_0 edge_13_16_0_0 edge_13_18_0_0 edge_13_19_0_0
 edge_14_15_0_0 edge_14_16_0_0 edge_14_18_0_0 edge_15_14_0_0 edge_15_16_0_0
 edge_15_18_0_0 edge_16_1_0_0 edge_16_2_0_0 edge_16_3_0_0 edge_16_4_0_0
 edge_16_5_0_0 edge_16_6_0_0 edge_16_7_0_0 edge_16_10_0_0 edge_16_12_0_0
 edge_16_13_0_0 edge_16_14_0_0 edge_16_15_0_0 edge_16_18_0_0 edge_16_19_0_0
 edge_18_5_0_0 edge_18_7_0_0 edge_18_10_0_0 edge_18_12_0_0 edge_18_13_0_0
 edge_18_14_0_0 edge_18_15_0_0 edge_18_16_0_0 edge_18_19_0_0 edge_19_16_0_0
 edge_19_18_0_0
End
